p tw 100 13501 2 
1 3 
1 4 
1 5 
1 6 
1 7 
1 8 
1 9 
1 10 
1 11 
1 15 
1 21 
1 24 
1 31 
1 33 
1 41 
1 42 
1 51 
1 56 
1 61 
1 70 
1 71 
1 79 
1 81 
1 88 
1 91 
1 97 
2 3 
2 4 
2 5 
2 6 
2 7 
2 8 
2 9 
2 10 
2 12 
2 18 
2 22 
2 29 
2 32 
2 34 
2 42 
2 43 
2 52 
2 60 
2 61 
2 62 
2 72 
2 77 
2 82 
2 85 
2 92 
2 96 
3 4 
3 5 
3 6 
3 7 
3 8 
3 9 
3 10 
3 13 
3 17 
3 21 
3 23 
3 32 
3 33 
3 43 
3 49 
3 53 
3 58 
3 63 
3 66 
3 73 
3 75 
3 83 
3 84 
3 93 
3 100 
4 5 
4 6 
4 7 
4 8 
4 9 
4 10 
4 14 
4 16 
4 23 
4 24 
4 34 
4 39 
4 44 
4 50 
4 51 
4 54 
4 64 
4 67 
4 74 
4 78 
4 82 
4 84 
4 94 
4 95 
5 6 
5 7 
5 8 
5 9 
5 10 
5 15 
5 19 
5 25 
5 27 
5 35 
5 38 
5 45 
5 46 
5 53 
5 55 
5 62 
5 65 
5 71 
5 75 
5 85 
5 90 
5 94 
5 95 
6 7 
6 8 
6 9 
6 10 
6 16 
6 20 
6 26 
6 28 
6 36 
6 37 
6 41 
6 46 
6 55 
6 56 
6 66 
6 69 
6 74 
6 76 
6 83 
6 86 
6 92 
6 96 
7 8 
7 9 
7 10 
7 12 
7 17 
7 27 
7 30 
7 36 
7 37 
7 47 
7 48 
7 54 
7 57 
7 65 
7 67 
7 73 
7 77 
7 87 
7 89 
7 91 
7 97 
8 9 
8 10 
8 13 
8 18 
8 26 
8 28 
8 31 
8 38 
8 45 
8 48 
8 52 
8 58 
8 64 
8 68 
8 78 
8 80 
8 87 
8 88 
8 98 
8 99 
9 10 
9 11 
9 19 
9 25 
9 29 
9 39 
9 40 
9 44 
9 49 
9 57 
9 59 
9 63 
9 69 
9 72 
9 79 
9 86 
9 89 
9 98 
9 99 
10 14 
10 20 
10 22 
10 30 
10 35 
10 40 
10 47 
10 50 
10 59 
10 60 
10 68 
10 70 
10 76 
10 80 
10 81 
10 90 
10 93 
10 100 
11 12 
11 13 
11 14 
11 15 
11 16 
11 17 
11 18 
11 19 
11 20 
11 21 
11 25 
11 31 
11 40 
11 41 
11 44 
11 51 
11 57 
11 61 
11 63 
11 71 
11 72 
11 81 
11 86 
11 91 
11 98 
12 13 
12 14 
12 15 
12 16 
12 17 
12 18 
12 19 
12 20 
12 22 
12 30 
12 32 
12 36 
12 42 
12 48 
12 52 
12 54 
12 62 
12 65 
12 72 
12 73 
12 82 
12 89 
12 91 
12 92 
13 14 
13 15 
13 16 
13 17 
13 18 
13 19 
13 20 
13 23 
13 26 
13 31 
13 33 
13 43 
13 45 
13 52 
13 53 
13 63 
13 64 
13 73 
13 80 
13 83 
13 87 
13 93 
13 99 
14 15 
14 16 
14 17 
14 18 
14 19 
14 20 
14 22 
14 24 
14 34 
14 35 
14 44 
14 47 
14 54 
14 59 
14 64 
14 68 
14 74 
14 76 
14 81 
14 84 
14 93 
14 94 
15 16 
15 17 
15 18 
15 19 
15 20 
15 24 
15 25 
15 33 
15 35 
15 42 
15 45 
15 55 
15 56 
15 65 
15 70 
15 75 
15 79 
15 85 
15 88 
15 95 
15 97 
16 17 
16 18 
16 19 
16 20 
16 23 
16 26 
16 36 
16 39 
16 46 
16 50 
16 51 
16 56 
16 66 
16 67 
16 76 
16 78 
16 82 
16 86 
16 95 
16 96 
17 18 
17 19 
17 20 
17 21 
17 27 
17 32 
17 37 
17 47 
17 49 
17 57 
17 58 
17 66 
17 67 
17 75 
17 77 
17 84 
17 87 
17 97 
17 100 
18 19 
18 20 
18 28 
18 29 
18 34 
18 38 
18 43 
18 48 
18 58 
18 60 
18 61 
18 68 
18 77 
18 78 
18 85 
18 88 
18 96 
18 98 
19 20 
19 27 
19 29 
19 38 
19 39 
19 46 
19 49 
19 53 
19 59 
19 62 
19 69 
19 71 
19 79 
19 89 
19 90 
19 94 
19 99 
20 28 
20 30 
20 37 
20 40 
20 41 
20 50 
20 55 
20 60 
20 69 
20 70 
20 74 
20 80 
20 83 
20 90 
20 92 
20 100 
21 22 
21 23 
21 24 
21 25 
21 26 
21 27 
21 28 
21 29 
21 30 
21 31 
21 32 
21 41 
21 49 
21 51 
21 58 
21 61 
21 66 
21 71 
21 75 
21 81 
21 84 
21 91 
21 100 
22 23 
22 24 
22 25 
22 26 
22 27 
22 28 
22 29 
22 30 
22 32 
22 35 
22 42 
22 47 
22 52 
22 59 
22 62 
22 68 
22 72 
22 76 
22 81 
22 82 
22 92 
22 93 
23 24 
23 25 
23 26 
23 27 
23 28 
23 29 
23 30 
23 33 
23 39 
23 43 
23 50 
23 51 
23 53 
23 63 
23 67 
23 73 
23 78 
23 82 
23 83 
23 93 
23 95 
24 25 
24 26 
24 27 
24 28 
24 29 
24 30 
24 33 
24 34 
24 42 
24 44 
24 54 
24 56 
24 64 
24 70 
24 74 
24 79 
24 84 
24 88 
24 94 
24 97 
25 26 
25 27 
25 28 
25 29 
25 30 
25 35 
25 40 
25 44 
25 45 
25 55 
25 57 
25 63 
25 65 
25 72 
25 75 
25 85 
25 86 
25 95 
25 98 
26 27 
26 28 
26 29 
26 30 
26 31 
26 36 
26 45 
26 46 
26 52 
26 56 
26 64 
26 66 
26 76 
26 80 
26 86 
26 87 
26 96 
26 99 
27 28 
27 29 
27 30 
27 37 
27 38 
27 46 
27 47 
27 53 
27 57 
27 62 
27 67 
27 71 
27 77 
27 87 
27 90 
27 94 
27 97 
28 29 
28 30 
28 37 
28 38 
28 41 
28 48 
28 55 
28 58 
28 68 
28 69 
28 74 
28 78 
28 83 
28 88 
28 92 
28 98 
29 30 
29 34 
29 39 
29 43 
29 49 
29 59 
29 60 
29 61 
29 69 
29 77 
29 79 
29 85 
29 89 
29 96 
29 99 
30 36 
30 40 
30 48 
30 50 
30 54 
30 60 
30 65 
30 70 
30 73 
30 80 
30 89 
30 90 
30 91 
30 100 
31 32 
31 33 
31 34 
31 35 
31 36 
31 37 
31 38 
31 39 
31 40 
31 41 
31 45 
31 51 
31 52 
31 61 
31 64 
31 71 
31 80 
31 81 
31 87 
31 91 
31 99 
32 33 
32 34 
32 35 
32 36 
32 37 
32 38 
32 39 
32 40 
32 42 
32 49 
32 52 
32 58 
32 62 
32 66 
32 72 
32 75 
32 82 
32 84 
32 92 
32 100 
33 34 
33 35 
33 36 
33 37 
33 38 
33 39 
33 40 
33 42 
33 43 
33 53 
33 56 
33 63 
33 70 
33 73 
33 79 
33 83 
33 88 
33 93 
33 97 
34 35 
34 36 
34 37 
34 38 
34 39 
34 40 
34 43 
34 44 
34 54 
34 60 
34 61 
34 64 
34 74 
34 77 
34 84 
34 85 
34 94 
34 96 
35 36 
35 37 
35 38 
35 39 
35 40 
35 45 
35 47 
35 55 
35 59 
35 65 
35 68 
35 75 
35 76 
35 81 
35 85 
35 93 
35 95 
36 37 
36 38 
36 39 
36 40 
36 46 
36 48 
36 54 
36 56 
36 65 
36 66 
36 73 
36 76 
36 86 
36 89 
36 91 
36 96 
37 38 
37 39 
37 40 
37 41 
37 47 
37 55 
37 57 
37 67 
37 69 
37 74 
37 77 
37 83 
37 87 
37 92 
37 97 
38 39 
38 40 
38 46 
38 48 
38 53 
38 58 
38 62 
38 68 
38 71 
38 78 
38 88 
38 90 
38 94 
38 98 
39 40 
39 49 
39 50 
39 51 
39 59 
39 67 
39 69 
39 78 
39 79 
39 82 
39 89 
39 95 
39 99 
40 44 
40 50 
40 57 
40 60 
40 63 
40 70 
40 72 
40 80 
40 86 
40 90 
40 98 
40 100 
41 42 
41 43 
41 44 
41 45 
41 46 
41 47 
41 48 
41 49 
41 50 
41 51 
41 55 
41 61 
41 69 
41 71 
41 74 
41 81 
41 83 
41 91 
41 92 
42 43 
42 44 
42 45 
42 46 
42 47 
42 48 
42 49 
42 50 
42 52 
42 56 
42 62 
42 70 
42 72 
42 79 
42 82 
42 88 
42 92 
42 97 
43 44 
43 45 
43 46 
43 47 
43 48 
43 49 
43 50 
43 53 
43 60 
43 61 
43 63 
43 73 
43 77 
43 83 
43 85 
43 93 
43 96 
44 45 
44 46 
44 47 
44 48 
44 49 
44 50 
44 54 
44 57 
44 63 
44 64 
44 72 
44 74 
44 84 
44 86 
44 94 
44 98 
45 46 
45 47 
45 48 
45 49 
45 50 
45 52 
45 55 
45 64 
45 65 
45 75 
45 80 
45 85 
45 87 
45 95 
45 99 
46 47 
46 48 
46 49 
46 50 
46 53 
46 56 
46 62 
46 66 
46 71 
46 76 
46 86 
46 90 
46 94 
46 96 
47 48 
47 49 
47 50 
47 57 
47 59 
47 67 
47 68 
47 76 
47 77 
47 81 
47 87 
47 93 
47 97 
48 49 
48 50 
48 54 
48 58 
48 65 
48 68 
48 73 
48 78 
48 88 
48 89 
48 91 
48 98 
49 50 
49 58 
49 59 
49 66 
49 69 
49 75 
49 79 
49 84 
49 89 
49 99 
49 100 
50 51 
50 60 
50 67 
50 70 
50 78 
50 80 
50 82 
50 90 
50 95 
50 100 
51 52 
51 53 
51 54 
51 55 
51 56 
51 57 
51 58 
51 59 
51 60 
51 61 
51 67 
51 71 
51 78 
51 81 
51 82 
51 91 
51 95 
52 53 
52 54 
52 55 
52 56 
52 57 
52 58 
52 59 
52 60 
52 62 
52 64 
52 72 
52 80 
52 82 
52 87 
52 92 
52 99 
53 54 
53 55 
53 56 
53 57 
53 58 
53 59 
53 60 
53 62 
53 63 
53 71 
53 73 
53 83 
53 90 
53 93 
53 94 
54 55 
54 56 
54 57 
54 58 
54 59 
54 60 
54 64 
54 65 
54 73 
54 74 
54 84 
54 89 
54 91 
54 94 
55 56 
55 57 
55 58 
55 59 
55 60 
55 65 
55 69 
55 74 
55 75 
55 83 
55 85 
55 92 
55 95 
56 57 
56 58 
56 59 
56 60 
56 66 
56 70 
56 76 
56 79 
56 86 
56 88 
56 96 
56 97 
57 58 
57 59 
57 60 
57 63 
57 67 
57 72 
57 77 
57 86 
57 87 
57 97 
57 98 
58 59 
58 60 
58 66 
58 68 
58 75 
58 78 
58 84 
58 88 
58 98 
58 100 
59 60 
59 68 
59 69 
59 76 
59 79 
59 81 
59 89 
59 93 
59 99 
60 61 
60 70 
60 77 
60 80 
60 85 
60 90 
60 96 
60 100 
61 62 
61 63 
61 64 
61 65 
61 66 
61 67 
61 68 
61 69 
61 70 
61 71 
61 77 
61 81 
61 85 
61 91 
61 96 
62 63 
62 64 
62 65 
62 66 
62 67 
62 68 
62 69 
62 70 
62 71 
62 72 
62 82 
62 90 
62 92 
62 94 
63 64 
63 65 
63 66 
63 67 
63 68 
63 69 
63 70 
63 72 
63 73 
63 83 
63 86 
63 93 
63 98 
64 65 
64 66 
64 67 
64 68 
64 69 
64 70 
64 74 
64 80 
64 84 
64 87 
64 94 
64 99 
65 66 
65 67 
65 68 
65 69 
65 70 
65 73 
65 75 
65 85 
65 89 
65 91 
65 95 
66 67 
66 68 
66 69 
66 70 
66 75 
66 76 
66 84 
66 86 
66 96 
66 100 
67 68 
67 69 
67 70 
67 77 
67 78 
67 82 
67 87 
67 95 
67 97 
68 69 
68 70 
68 76 
68 78 
68 81 
68 88 
68 93 
68 98 
69 70 
69 74 
69 79 
69 83 
69 89 
69 92 
69 99 
70 79 
70 80 
70 88 
70 90 
70 97 
70 100 
71 72 
71 73 
71 74 
71 75 
71 76 
71 77 
71 78 
71 79 
71 80 
71 81 
71 90 
71 91 
71 94 
72 73 
72 74 
72 75 
72 76 
72 77 
72 78 
72 79 
72 80 
72 82 
72 86 
72 92 
72 98 
73 74 
73 75 
73 76 
73 77 
73 78 
73 79 
73 80 
73 83 
73 89 
73 91 
73 93 
74 75 
74 76 
74 77 
74 78 
74 79 
74 80 
74 83 
74 84 
74 92 
74 94 
75 76 
75 77 
75 78 
75 79 
75 80 
75 84 
75 85 
75 95 
75 100 
76 77 
76 78 
76 79 
76 80 
76 81 
76 86 
76 93 
76 96 
77 78 
77 79 
77 80 
77 85 
77 87 
77 96 
77 97 
78 79 
78 80 
78 82 
78 88 
78 95 
78 98 
79 80 
79 88 
79 89 
79 97 
79 99 
80 87 
80 90 
80 99 
80 100 
81 82 
81 83 
81 84 
81 85 
81 86 
81 87 
81 88 
81 89 
81 90 
81 91 
81 93 
82 83 
82 84 
82 85 
82 86 
82 87 
82 88 
82 89 
82 90 
82 92 
82 95 
83 84 
83 85 
83 86 
83 87 
83 88 
83 89 
83 90 
83 92 
83 93 
84 85 
84 86 
84 87 
84 88 
84 89 
84 90 
84 94 
84 100 
85 86 
85 87 
85 88 
85 89 
85 90 
85 95 
85 96 
86 87 
86 88 
86 89 
86 90 
86 96 
86 98 
87 88 
87 89 
87 90 
87 97 
87 99 
88 89 
88 90 
88 97 
88 98 
89 90 
89 91 
89 99 
90 94 
90 100 
91 92 
91 93 
91 94 
91 95 
91 96 
91 97 
91 98 
91 99 
91 100 
92 93 
92 94 
92 95 
92 96 
92 97 
92 98 
92 99 
92 100 
93 94 
93 95 
93 96 
93 97 
93 98 
93 99 
93 100 
94 95 
94 96 
94 97 
94 98 
94 99 
94 100 
95 96 
95 97 
95 98 
95 99 
95 100 
96 97 
96 98 
96 99 
96 100 
97 98 
97 99 
97 100 
98 99 
98 100 
99 100 
